p tw 256 3840
0 1
0 2
0 3
0 4
0 5
0 6
0 7
0 8
0 9
0 10
0 11
0 12
0 13
0 14
0 15
0 19
0 47
0 76
0 93
0 137
0 158
0 166
0 167
0 168
0 169
0 170
0 171
0 172
0 173
0 174
1 2
1 3
1 4
1 5
1 6
1 7
1 8
1 9
1 10
1 11
1 12
1 13
1 14
1 15
1 17
1 51
1 74
1 90
1 138
1 160
1 189
1 200
1 215
1 223
1 226
1 246
1 250
1 252
1 255
2 3
2 4
2 5
2 6
2 7
2 8
2 9
2 10
2 11
2 12
2 13
2 14
2 15
2 21
2 48
2 79
2 97
2 113
2 114
2 115
2 116
2 117
2 118
2 119
2 120
2 121
2 122
2 123
3 4
3 5
3 6
3 7
3 8
3 9
3 10
3 11
3 12
3 13
3 14
3 15
3 16
3 59
3 75
3 88
3 135
3 163
3 187
3 201
3 214
3 221
3 227
3 232
3 233
3 234
3 235
4 5
4 6
4 7
4 8
4 9
4 10
4 11
4 12
4 13
4 14
4 15
4 18
4 49
4 77
4 89
4 136
4 156
4 186
4 192
4 193
4 194
4 195
4 196
4 197
4 198
4 199
5 6
5 7
5 8
5 9
5 10
5 11
5 12
5 13
5 14
5 15
5 23
5 50
5 80
5 100
5 142
5 159
5 188
5 204
5 217
5 225
5 228
5 245
5 251
5 253
5 254
6 7
6 8
6 9
6 10
6 11
6 12
6 13
6 14
6 15
6 20
6 52
6 78
6 98
6 139
6 146
6 147
6 148
6 149
6 150
6 151
6 152
6 153
6 154
6 155
7 8
7 9
7 10
7 11
7 12
7 13
7 14
7 15
7 31
7 56
7 86
7 95
7 141
7 162
7 175
7 176
7 177
7 178
7 179
7 180
7 181
7 182
7 183
8 9
8 10
8 11
8 12
8 13
8 14
8 15
8 26
8 54
8 81
8 96
8 140
8 164
8 185
8 202
8 216
8 220
8 229
8 244
8 247
8 248
8 249
9 10
9 11
9 12
9 13
9 14
9 15
9 28
9 53
9 83
9 92
9 124
9 125
9 126
9 127
9 128
9 129
9 130
9 131
9 132
9 133
9 134
10 11
10 12
10 13
10 14
10 15
10 25
10 32
10 33
10 34
10 35
10 36
10 37
10 38
10 39
10 40
10 41
10 42
10 43
10 44
10 45
11 12
11 13
11 14
11 15
11 30
11 55
11 85
11 101
11 143
11 161
11 184
11 203
11 219
11 224
11 231
11 236
11 237
11 238
11 239
12 13
12 14
12 15
12 24
12 57
12 61
12 62
12 63
12 64
12 65
12 66
12 67
12 68
12 69
12 70
12 71
12 72
12 73
13 14
13 15
13 22
13 58
13 87
13 91
13 102
13 103
13 104
13 105
13 106
13 107
13 108
13 109
13 110
13 111
13 112
14 15
14 27
14 60
14 82
14 99
14 144
14 165
14 191
14 205
14 207
14 208
14 209
14 210
14 211
14 212
14 213
15 29
15 46
15 84
15 94
15 145
15 157
15 190
15 206
15 218
15 222
15 230
15 240
15 241
15 242
15 243
16 17
16 18
16 19
16 20
16 21
16 22
16 23
16 24
16 25
16 26
16 27
16 28
16 29
16 30
16 31
16 59
16 75
16 88
16 135
16 163
16 187
16 201
16 214
16 221
16 227
16 232
16 233
16 234
16 235
17 18
17 19
17 20
17 21
17 22
17 23
17 24
17 25
17 26
17 27
17 28
17 29
17 30
17 31
17 51
17 74
17 90
17 138
17 160
17 189
17 200
17 215
17 223
17 226
17 246
17 250
17 252
17 255
18 19
18 20
18 21
18 22
18 23
18 24
18 25
18 26
18 27
18 28
18 29
18 30
18 31
18 49
18 77
18 89
18 136
18 156
18 186
18 192
18 193
18 194
18 195
18 196
18 197
18 198
18 199
19 20
19 21
19 22
19 23
19 24
19 25
19 26
19 27
19 28
19 29
19 30
19 31
19 47
19 76
19 93
19 137
19 158
19 166
19 167
19 168
19 169
19 170
19 171
19 172
19 173
19 174
20 21
20 22
20 23
20 24
20 25
20 26
20 27
20 28
20 29
20 30
20 31
20 52
20 78
20 98
20 139
20 146
20 147
20 148
20 149
20 150
20 151
20 152
20 153
20 154
20 155
21 22
21 23
21 24
21 25
21 26
21 27
21 28
21 29
21 30
21 31
21 48
21 79
21 97
21 113
21 114
21 115
21 116
21 117
21 118
21 119
21 120
21 121
21 122
21 123
22 23
22 24
22 25
22 26
22 27
22 28
22 29
22 30
22 31
22 58
22 87
22 91
22 102
22 103
22 104
22 105
22 106
22 107
22 108
22 109
22 110
22 111
22 112
23 24
23 25
23 26
23 27
23 28
23 29
23 30
23 31
23 50
23 80
23 100
23 142
23 159
23 188
23 204
23 217
23 225
23 228
23 245
23 251
23 253
23 254
24 25
24 26
24 27
24 28
24 29
24 30
24 31
24 57
24 61
24 62
24 63
24 64
24 65
24 66
24 67
24 68
24 69
24 70
24 71
24 72
24 73
25 26
25 27
25 28
25 29
25 30
25 31
25 32
25 33
25 34
25 35
25 36
25 37
25 38
25 39
25 40
25 41
25 42
25 43
25 44
25 45
26 27
26 28
26 29
26 30
26 31
26 54
26 81
26 96
26 140
26 164
26 185
26 202
26 216
26 220
26 229
26 244
26 247
26 248
26 249
27 28
27 29
27 30
27 31
27 60
27 82
27 99
27 144
27 165
27 191
27 205
27 207
27 208
27 209
27 210
27 211
27 212
27 213
28 29
28 30
28 31
28 53
28 83
28 92
28 124
28 125
28 126
28 127
28 128
28 129
28 130
28 131
28 132
28 133
28 134
29 30
29 31
29 46
29 84
29 94
29 145
29 157
29 190
29 206
29 218
29 222
29 230
29 240
29 241
29 242
29 243
30 31
30 55
30 85
30 101
30 143
30 161
30 184
30 203
30 219
30 224
30 231
30 236
30 237
30 238
30 239
31 56
31 86
31 95
31 141
31 162
31 175
31 176
31 177
31 178
31 179
31 180
31 181
31 182
31 183
32 33
32 34
32 35
32 36
32 37
32 38
32 39
32 40
32 41
32 42
32 43
32 44
32 45
32 73
32 108
32 117
32 129
32 151
32 156
32 157
32 158
32 159
32 160
32 161
32 162
32 163
32 164
32 165
33 34
33 35
33 36
33 37
33 38
33 39
33 40
33 41
33 42
33 43
33 44
33 45
33 69
33 111
33 113
33 132
33 148
33 168
33 178
33 197
33 210
33 234
33 237
33 243
33 248
33 254
33 255
34 35
34 36
34 37
34 38
34 39
34 40
34 41
34 42
34 43
34 44
34 45
34 70
34 112
34 114
34 133
34 149
34 167
34 182
34 198
34 208
34 226
34 227
34 228
34 229
34 230
34 231
35 36
35 37
35 38
35 39
35 40
35 41
35 42
35 43
35 44
35 45
35 66
35 74
35 75
35 76
35 77
35 78
35 79
35 80
35 81
35 82
35 83
35 84
35 85
35 86
35 87
36 37
36 38
36 39
36 40
36 41
36 42
36 43
36 44
36 45
36 46
36 47
36 48
36 49
36 50
36 51
36 52
36 53
36 54
36 55
36 56
36 57
36 58
36 59
36 60
37 38
37 39
37 40
37 41
37 42
37 43
37 44
37 45
37 71
37 109
37 115
37 130
37 147
37 166
37 176
37 193
37 200
37 201
37 202
37 203
37 204
37 205
37 206
38 39
38 40
38 41
38 42
38 43
38 44
38 45
38 68
38 102
38 121
38 128
38 155
38 174
38 180
38 192
38 209
38 232
38 236
38 240
38 249
38 250
38 251
39 40
39 41
39 42
39 43
39 44
39 45
39 72
39 110
39 116
39 131
39 135
39 136
39 137
39 138
39 139
39 140
39 141
39 142
39 143
39 144
39 145
40 41
40 42
40 43
40 44
40 45
40 67
40 88
40 89
40 90
40 91
40 92
40 93
40 94
40 95
40 96
40 97
40 98
40 99
40 100
40 101
41 42
41 43
41 44
41 45
41 65
41 106
41 119
41 126
41 150
41 172
41 181
41 194
41 211
41 233
41 239
41 241
41 247
41 252
41 253
42 43
42 44
42 45
42 64
42 105
42 120
42 127
42 152
42 171
42 177
42 195
42 213
42 220
42 221
42 222
42 223
42 224
42 225
43 44
43 45
43 62
43 104
43 122
43 124
43 153
43 170
43 175
43 196
43 212
43 235
43 238
43 242
43 244
43 245
43 246
44 45
44 61
44 103
44 123
44 125
44 154
44 173
44 179
44 184
44 185
44 186
44 187
44 188
44 189
44 190
44 191
45 63
45 107
45 118
45 134
45 146
45 169
45 183
45 199
45 207
45 214
45 215
45 216
45 217
45 218
45 219
46 47
46 48
46 49
46 50
46 51
46 52
46 53
46 54
46 55
46 56
46 57
46 58
46 59
46 60
46 84
46 94
46 145
46 157
46 190
46 206
46 218
46 222
46 230
46 240
46 241
46 242
46 243
47 48
47 49
47 50
47 51
47 52
47 53
47 54
47 55
47 56
47 57
47 58
47 59
47 60
47 76
47 93
47 137
47 158
47 166
47 167
47 168
47 169
47 170
47 171
47 172
47 173
47 174
48 49
48 50
48 51
48 52
48 53
48 54
48 55
48 56
48 57
48 58
48 59
48 60
48 79
48 97
48 113
48 114
48 115
48 116
48 117
48 118
48 119
48 120
48 121
48 122
48 123
49 50
49 51
49 52
49 53
49 54
49 55
49 56
49 57
49 58
49 59
49 60
49 77
49 89
49 136
49 156
49 186
49 192
49 193
49 194
49 195
49 196
49 197
49 198
49 199
50 51
50 52
50 53
50 54
50 55
50 56
50 57
50 58
50 59
50 60
50 80
50 100
50 142
50 159
50 188
50 204
50 217
50 225
50 228
50 245
50 251
50 253
50 254
51 52
51 53
51 54
51 55
51 56
51 57
51 58
51 59
51 60
51 74
51 90
51 138
51 160
51 189
51 200
51 215
51 223
51 226
51 246
51 250
51 252
51 255
52 53
52 54
52 55
52 56
52 57
52 58
52 59
52 60
52 78
52 98
52 139
52 146
52 147
52 148
52 149
52 150
52 151
52 152
52 153
52 154
52 155
53 54
53 55
53 56
53 57
53 58
53 59
53 60
53 83
53 92
53 124
53 125
53 126
53 127
53 128
53 129
53 130
53 131
53 132
53 133
53 134
54 55
54 56
54 57
54 58
54 59
54 60
54 81
54 96
54 140
54 164
54 185
54 202
54 216
54 220
54 229
54 244
54 247
54 248
54 249
55 56
55 57
55 58
55 59
55 60
55 85
55 101
55 143
55 161
55 184
55 203
55 219
55 224
55 231
55 236
55 237
55 238
55 239
56 57
56 58
56 59
56 60
56 86
56 95
56 141
56 162
56 175
56 176
56 177
56 178
56 179
56 180
56 181
56 182
56 183
57 58
57 59
57 60
57 61
57 62
57 63
57 64
57 65
57 66
57 67
57 68
57 69
57 70
57 71
57 72
57 73
58 59
58 60
58 87
58 91
58 102
58 103
58 104
58 105
58 106
58 107
58 108
58 109
58 110
58 111
58 112
59 60
59 75
59 88
59 135
59 163
59 187
59 201
59 214
59 221
59 227
59 232
59 233
59 234
59 235
60 82
60 99
60 144
60 165
60 191
60 205
60 207
60 208
60 209
60 210
60 211
60 212
60 213
61 62
61 63
61 64
61 65
61 66
61 67
61 68
61 69
61 70
61 71
61 72
61 73
61 103
61 123
61 125
61 154
61 173
61 179
61 184
61 185
61 186
61 187
61 188
61 189
61 190
61 191
62 63
62 64
62 65
62 66
62 67
62 68
62 69
62 70
62 71
62 72
62 73
62 104
62 122
62 124
62 153
62 170
62 175
62 196
62 212
62 235
62 238
62 242
62 244
62 245
62 246
63 64
63 65
63 66
63 67
63 68
63 69
63 70
63 71
63 72
63 73
63 107
63 118
63 134
63 146
63 169
63 183
63 199
63 207
63 214
63 215
63 216
63 217
63 218
63 219
64 65
64 66
64 67
64 68
64 69
64 70
64 71
64 72
64 73
64 105
64 120
64 127
64 152
64 171
64 177
64 195
64 213
64 220
64 221
64 222
64 223
64 224
64 225
65 66
65 67
65 68
65 69
65 70
65 71
65 72
65 73
65 106
65 119
65 126
65 150
65 172
65 181
65 194
65 211
65 233
65 239
65 241
65 247
65 252
65 253
66 67
66 68
66 69
66 70
66 71
66 72
66 73
66 74
66 75
66 76
66 77
66 78
66 79
66 80
66 81
66 82
66 83
66 84
66 85
66 86
66 87
67 68
67 69
67 70
67 71
67 72
67 73
67 88
67 89
67 90
67 91
67 92
67 93
67 94
67 95
67 96
67 97
67 98
67 99
67 100
67 101
68 69
68 70
68 71
68 72
68 73
68 102
68 121
68 128
68 155
68 174
68 180
68 192
68 209
68 232
68 236
68 240
68 249
68 250
68 251
69 70
69 71
69 72
69 73
69 111
69 113
69 132
69 148
69 168
69 178
69 197
69 210
69 234
69 237
69 243
69 248
69 254
69 255
70 71
70 72
70 73
70 112
70 114
70 133
70 149
70 167
70 182
70 198
70 208
70 226
70 227
70 228
70 229
70 230
70 231
71 72
71 73
71 109
71 115
71 130
71 147
71 166
71 176
71 193
71 200
71 201
71 202
71 203
71 204
71 205
71 206
72 73
72 110
72 116
72 131
72 135
72 136
72 137
72 138
72 139
72 140
72 141
72 142
72 143
72 144
72 145
73 108
73 117
73 129
73 151
73 156
73 157
73 158
73 159
73 160
73 161
73 162
73 163
73 164
73 165
74 75
74 76
74 77
74 78
74 79
74 80
74 81
74 82
74 83
74 84
74 85
74 86
74 87
74 90
74 138
74 160
74 189
74 200
74 215
74 223
74 226
74 246
74 250
74 252
74 255
75 76
75 77
75 78
75 79
75 80
75 81
75 82
75 83
75 84
75 85
75 86
75 87
75 88
75 135
75 163
75 187
75 201
75 214
75 221
75 227
75 232
75 233
75 234
75 235
76 77
76 78
76 79
76 80
76 81
76 82
76 83
76 84
76 85
76 86
76 87
76 93
76 137
76 158
76 166
76 167
76 168
76 169
76 170
76 171
76 172
76 173
76 174
77 78
77 79
77 80
77 81
77 82
77 83
77 84
77 85
77 86
77 87
77 89
77 136
77 156
77 186
77 192
77 193
77 194
77 195
77 196
77 197
77 198
77 199
78 79
78 80
78 81
78 82
78 83
78 84
78 85
78 86
78 87
78 98
78 139
78 146
78 147
78 148
78 149
78 150
78 151
78 152
78 153
78 154
78 155
79 80
79 81
79 82
79 83
79 84
79 85
79 86
79 87
79 97
79 113
79 114
79 115
79 116
79 117
79 118
79 119
79 120
79 121
79 122
79 123
80 81
80 82
80 83
80 84
80 85
80 86
80 87
80 100
80 142
80 159
80 188
80 204
80 217
80 225
80 228
80 245
80 251
80 253
80 254
81 82
81 83
81 84
81 85
81 86
81 87
81 96
81 140
81 164
81 185
81 202
81 216
81 220
81 229
81 244
81 247
81 248
81 249
82 83
82 84
82 85
82 86
82 87
82 99
82 144
82 165
82 191
82 205
82 207
82 208
82 209
82 210
82 211
82 212
82 213
83 84
83 85
83 86
83 87
83 92
83 124
83 125
83 126
83 127
83 128
83 129
83 130
83 131
83 132
83 133
83 134
84 85
84 86
84 87
84 94
84 145
84 157
84 190
84 206
84 218
84 222
84 230
84 240
84 241
84 242
84 243
85 86
85 87
85 101
85 143
85 161
85 184
85 203
85 219
85 224
85 231
85 236
85 237
85 238
85 239
86 87
86 95
86 141
86 162
86 175
86 176
86 177
86 178
86 179
86 180
86 181
86 182
86 183
87 91
87 102
87 103
87 104
87 105
87 106
87 107
87 108
87 109
87 110
87 111
87 112
88 89
88 90
88 91
88 92
88 93
88 94
88 95
88 96
88 97
88 98
88 99
88 100
88 101
88 135
88 163
88 187
88 201
88 214
88 221
88 227
88 232
88 233
88 234
88 235
89 90
89 91
89 92
89 93
89 94
89 95
89 96
89 97
89 98
89 99
89 100
89 101
89 136
89 156
89 186
89 192
89 193
89 194
89 195
89 196
89 197
89 198
89 199
90 91
90 92
90 93
90 94
90 95
90 96
90 97
90 98
90 99
90 100
90 101
90 138
90 160
90 189
90 200
90 215
90 223
90 226
90 246
90 250
90 252
90 255
91 92
91 93
91 94
91 95
91 96
91 97
91 98
91 99
91 100
91 101
91 102
91 103
91 104
91 105
91 106
91 107
91 108
91 109
91 110
91 111
91 112
92 93
92 94
92 95
92 96
92 97
92 98
92 99
92 100
92 101
92 124
92 125
92 126
92 127
92 128
92 129
92 130
92 131
92 132
92 133
92 134
93 94
93 95
93 96
93 97
93 98
93 99
93 100
93 101
93 137
93 158
93 166
93 167
93 168
93 169
93 170
93 171
93 172
93 173
93 174
94 95
94 96
94 97
94 98
94 99
94 100
94 101
94 145
94 157
94 190
94 206
94 218
94 222
94 230
94 240
94 241
94 242
94 243
95 96
95 97
95 98
95 99
95 100
95 101
95 141
95 162
95 175
95 176
95 177
95 178
95 179
95 180
95 181
95 182
95 183
96 97
96 98
96 99
96 100
96 101
96 140
96 164
96 185
96 202
96 216
96 220
96 229
96 244
96 247
96 248
96 249
97 98
97 99
97 100
97 101
97 113
97 114
97 115
97 116
97 117
97 118
97 119
97 120
97 121
97 122
97 123
98 99
98 100
98 101
98 139
98 146
98 147
98 148
98 149
98 150
98 151
98 152
98 153
98 154
98 155
99 100
99 101
99 144
99 165
99 191
99 205
99 207
99 208
99 209
99 210
99 211
99 212
99 213
100 101
100 142
100 159
100 188
100 204
100 217
100 225
100 228
100 245
100 251
100 253
100 254
101 143
101 161
101 184
101 203
101 219
101 224
101 231
101 236
101 237
101 238
101 239
102 103
102 104
102 105
102 106
102 107
102 108
102 109
102 110
102 111
102 112
102 121
102 128
102 155
102 174
102 180
102 192
102 209
102 232
102 236
102 240
102 249
102 250
102 251
103 104
103 105
103 106
103 107
103 108
103 109
103 110
103 111
103 112
103 123
103 125
103 154
103 173
103 179
103 184
103 185
103 186
103 187
103 188
103 189
103 190
103 191
104 105
104 106
104 107
104 108
104 109
104 110
104 111
104 112
104 122
104 124
104 153
104 170
104 175
104 196
104 212
104 235
104 238
104 242
104 244
104 245
104 246
105 106
105 107
105 108
105 109
105 110
105 111
105 112
105 120
105 127
105 152
105 171
105 177
105 195
105 213
105 220
105 221
105 222
105 223
105 224
105 225
106 107
106 108
106 109
106 110
106 111
106 112
106 119
106 126
106 150
106 172
106 181
106 194
106 211
106 233
106 239
106 241
106 247
106 252
106 253
107 108
107 109
107 110
107 111
107 112
107 118
107 134
107 146
107 169
107 183
107 199
107 207
107 214
107 215
107 216
107 217
107 218
107 219
108 109
108 110
108 111
108 112
108 117
108 129
108 151
108 156
108 157
108 158
108 159
108 160
108 161
108 162
108 163
108 164
108 165
109 110
109 111
109 112
109 115
109 130
109 147
109 166
109 176
109 193
109 200
109 201
109 202
109 203
109 204
109 205
109 206
110 111
110 112
110 116
110 131
110 135
110 136
110 137
110 138
110 139
110 140
110 141
110 142
110 143
110 144
110 145
111 112
111 113
111 132
111 148
111 168
111 178
111 197
111 210
111 234
111 237
111 243
111 248
111 254
111 255
112 114
112 133
112 149
112 167
112 182
112 198
112 208
112 226
112 227
112 228
112 229
112 230
112 231
113 114
113 115
113 116
113 117
113 118
113 119
113 120
113 121
113 122
113 123
113 132
113 148
113 168
113 178
113 197
113 210
113 234
113 237
113 243
113 248
113 254
113 255
114 115
114 116
114 117
114 118
114 119
114 120
114 121
114 122
114 123
114 133
114 149
114 167
114 182
114 198
114 208
114 226
114 227
114 228
114 229
114 230
114 231
115 116
115 117
115 118
115 119
115 120
115 121
115 122
115 123
115 130
115 147
115 166
115 176
115 193
115 200
115 201
115 202
115 203
115 204
115 205
115 206
116 117
116 118
116 119
116 120
116 121
116 122
116 123
116 131
116 135
116 136
116 137
116 138
116 139
116 140
116 141
116 142
116 143
116 144
116 145
117 118
117 119
117 120
117 121
117 122
117 123
117 129
117 151
117 156
117 157
117 158
117 159
117 160
117 161
117 162
117 163
117 164
117 165
118 119
118 120
118 121
118 122
118 123
118 134
118 146
118 169
118 183
118 199
118 207
118 214
118 215
118 216
118 217
118 218
118 219
119 120
119 121
119 122
119 123
119 126
119 150
119 172
119 181
119 194
119 211
119 233
119 239
119 241
119 247
119 252
119 253
120 121
120 122
120 123
120 127
120 152
120 171
120 177
120 195
120 213
120 220
120 221
120 222
120 223
120 224
120 225
121 122
121 123
121 128
121 155
121 174
121 180
121 192
121 209
121 232
121 236
121 240
121 249
121 250
121 251
122 123
122 124
122 153
122 170
122 175
122 196
122 212
122 235
122 238
122 242
122 244
122 245
122 246
123 125
123 154
123 173
123 179
123 184
123 185
123 186
123 187
123 188
123 189
123 190
123 191
124 125
124 126
124 127
124 128
124 129
124 130
124 131
124 132
124 133
124 134
124 153
124 170
124 175
124 196
124 212
124 235
124 238
124 242
124 244
124 245
124 246
125 126
125 127
125 128
125 129
125 130
125 131
125 132
125 133
125 134
125 154
125 173
125 179
125 184
125 185
125 186
125 187
125 188
125 189
125 190
125 191
126 127
126 128
126 129
126 130
126 131
126 132
126 133
126 134
126 150
126 172
126 181
126 194
126 211
126 233
126 239
126 241
126 247
126 252
126 253
127 128
127 129
127 130
127 131
127 132
127 133
127 134
127 152
127 171
127 177
127 195
127 213
127 220
127 221
127 222
127 223
127 224
127 225
128 129
128 130
128 131
128 132
128 133
128 134
128 155
128 174
128 180
128 192
128 209
128 232
128 236
128 240
128 249
128 250
128 251
129 130
129 131
129 132
129 133
129 134
129 151
129 156
129 157
129 158
129 159
129 160
129 161
129 162
129 163
129 164
129 165
130 131
130 132
130 133
130 134
130 147
130 166
130 176
130 193
130 200
130 201
130 202
130 203
130 204
130 205
130 206
131 132
131 133
131 134
131 135
131 136
131 137
131 138
131 139
131 140
131 141
131 142
131 143
131 144
131 145
132 133
132 134
132 148
132 168
132 178
132 197
132 210
132 234
132 237
132 243
132 248
132 254
132 255
133 134
133 149
133 167
133 182
133 198
133 208
133 226
133 227
133 228
133 229
133 230
133 231
134 146
134 169
134 183
134 199
134 207
134 214
134 215
134 216
134 217
134 218
134 219
135 136
135 137
135 138
135 139
135 140
135 141
135 142
135 143
135 144
135 145
135 163
135 187
135 201
135 214
135 221
135 227
135 232
135 233
135 234
135 235
136 137
136 138
136 139
136 140
136 141
136 142
136 143
136 144
136 145
136 156
136 186
136 192
136 193
136 194
136 195
136 196
136 197
136 198
136 199
137 138
137 139
137 140
137 141
137 142
137 143
137 144
137 145
137 158
137 166
137 167
137 168
137 169
137 170
137 171
137 172
137 173
137 174
138 139
138 140
138 141
138 142
138 143
138 144
138 145
138 160
138 189
138 200
138 215
138 223
138 226
138 246
138 250
138 252
138 255
139 140
139 141
139 142
139 143
139 144
139 145
139 146
139 147
139 148
139 149
139 150
139 151
139 152
139 153
139 154
139 155
140 141
140 142
140 143
140 144
140 145
140 164
140 185
140 202
140 216
140 220
140 229
140 244
140 247
140 248
140 249
141 142
141 143
141 144
141 145
141 162
141 175
141 176
141 177
141 178
141 179
141 180
141 181
141 182
141 183
142 143
142 144
142 145
142 159
142 188
142 204
142 217
142 225
142 228
142 245
142 251
142 253
142 254
143 144
143 145
143 161
143 184
143 203
143 219
143 224
143 231
143 236
143 237
143 238
143 239
144 145
144 165
144 191
144 205
144 207
144 208
144 209
144 210
144 211
144 212
144 213
145 157
145 190
145 206
145 218
145 222
145 230
145 240
145 241
145 242
145 243
146 147
146 148
146 149
146 150
146 151
146 152
146 153
146 154
146 155
146 169
146 183
146 199
146 207
146 214
146 215
146 216
146 217
146 218
146 219
147 148
147 149
147 150
147 151
147 152
147 153
147 154
147 155
147 166
147 176
147 193
147 200
147 201
147 202
147 203
147 204
147 205
147 206
148 149
148 150
148 151
148 152
148 153
148 154
148 155
148 168
148 178
148 197
148 210
148 234
148 237
148 243
148 248
148 254
148 255
149 150
149 151
149 152
149 153
149 154
149 155
149 167
149 182
149 198
149 208
149 226
149 227
149 228
149 229
149 230
149 231
150 151
150 152
150 153
150 154
150 155
150 172
150 181
150 194
150 211
150 233
150 239
150 241
150 247
150 252
150 253
151 152
151 153
151 154
151 155
151 156
151 157
151 158
151 159
151 160
151 161
151 162
151 163
151 164
151 165
152 153
152 154
152 155
152 171
152 177
152 195
152 213
152 220
152 221
152 222
152 223
152 224
152 225
153 154
153 155
153 170
153 175
153 196
153 212
153 235
153 238
153 242
153 244
153 245
153 246
154 155
154 173
154 179
154 184
154 185
154 186
154 187
154 188
154 189
154 190
154 191
155 174
155 180
155 192
155 209
155 232
155 236
155 240
155 249
155 250
155 251
156 157
156 158
156 159
156 160
156 161
156 162
156 163
156 164
156 165
156 186
156 192
156 193
156 194
156 195
156 196
156 197
156 198
156 199
157 158
157 159
157 160
157 161
157 162
157 163
157 164
157 165
157 190
157 206
157 218
157 222
157 230
157 240
157 241
157 242
157 243
158 159
158 160
158 161
158 162
158 163
158 164
158 165
158 166
158 167
158 168
158 169
158 170
158 171
158 172
158 173
158 174
159 160
159 161
159 162
159 163
159 164
159 165
159 188
159 204
159 217
159 225
159 228
159 245
159 251
159 253
159 254
160 161
160 162
160 163
160 164
160 165
160 189
160 200
160 215
160 223
160 226
160 246
160 250
160 252
160 255
161 162
161 163
161 164
161 165
161 184
161 203
161 219
161 224
161 231
161 236
161 237
161 238
161 239
162 163
162 164
162 165
162 175
162 176
162 177
162 178
162 179
162 180
162 181
162 182
162 183
163 164
163 165
163 187
163 201
163 214
163 221
163 227
163 232
163 233
163 234
163 235
164 165
164 185
164 202
164 216
164 220
164 229
164 244
164 247
164 248
164 249
165 191
165 205
165 207
165 208
165 209
165 210
165 211
165 212
165 213
166 167
166 168
166 169
166 170
166 171
166 172
166 173
166 174
166 176
166 193
166 200
166 201
166 202
166 203
166 204
166 205
166 206
167 168
167 169
167 170
167 171
167 172
167 173
167 174
167 182
167 198
167 208
167 226
167 227
167 228
167 229
167 230
167 231
168 169
168 170
168 171
168 172
168 173
168 174
168 178
168 197
168 210
168 234
168 237
168 243
168 248
168 254
168 255
169 170
169 171
169 172
169 173
169 174
169 183
169 199
169 207
169 214
169 215
169 216
169 217
169 218
169 219
170 171
170 172
170 173
170 174
170 175
170 196
170 212
170 235
170 238
170 242
170 244
170 245
170 246
171 172
171 173
171 174
171 177
171 195
171 213
171 220
171 221
171 222
171 223
171 224
171 225
172 173
172 174
172 181
172 194
172 211
172 233
172 239
172 241
172 247
172 252
172 253
173 174
173 179
173 184
173 185
173 186
173 187
173 188
173 189
173 190
173 191
174 180
174 192
174 209
174 232
174 236
174 240
174 249
174 250
174 251
175 176
175 177
175 178
175 179
175 180
175 181
175 182
175 183
175 196
175 212
175 235
175 238
175 242
175 244
175 245
175 246
176 177
176 178
176 179
176 180
176 181
176 182
176 183
176 193
176 200
176 201
176 202
176 203
176 204
176 205
176 206
177 178
177 179
177 180
177 181
177 182
177 183
177 195
177 213
177 220
177 221
177 222
177 223
177 224
177 225
178 179
178 180
178 181
178 182
178 183
178 197
178 210
178 234
178 237
178 243
178 248
178 254
178 255
179 180
179 181
179 182
179 183
179 184
179 185
179 186
179 187
179 188
179 189
179 190
179 191
180 181
180 182
180 183
180 192
180 209
180 232
180 236
180 240
180 249
180 250
180 251
181 182
181 183
181 194
181 211
181 233
181 239
181 241
181 247
181 252
181 253
182 183
182 198
182 208
182 226
182 227
182 228
182 229
182 230
182 231
183 199
183 207
183 214
183 215
183 216
183 217
183 218
183 219
184 185
184 186
184 187
184 188
184 189
184 190
184 191
184 203
184 219
184 224
184 231
184 236
184 237
184 238
184 239
185 186
185 187
185 188
185 189
185 190
185 191
185 202
185 216
185 220
185 229
185 244
185 247
185 248
185 249
186 187
186 188
186 189
186 190
186 191
186 192
186 193
186 194
186 195
186 196
186 197
186 198
186 199
187 188
187 189
187 190
187 191
187 201
187 214
187 221
187 227
187 232
187 233
187 234
187 235
188 189
188 190
188 191
188 204
188 217
188 225
188 228
188 245
188 251
188 253
188 254
189 190
189 191
189 200
189 215
189 223
189 226
189 246
189 250
189 252
189 255
190 191
190 206
190 218
190 222
190 230
190 240
190 241
190 242
190 243
191 205
191 207
191 208
191 209
191 210
191 211
191 212
191 213
192 193
192 194
192 195
192 196
192 197
192 198
192 199
192 209
192 232
192 236
192 240
192 249
192 250
192 251
193 194
193 195
193 196
193 197
193 198
193 199
193 200
193 201
193 202
193 203
193 204
193 205
193 206
194 195
194 196
194 197
194 198
194 199
194 211
194 233
194 239
194 241
194 247
194 252
194 253
195 196
195 197
195 198
195 199
195 213
195 220
195 221
195 222
195 223
195 224
195 225
196 197
196 198
196 199
196 212
196 235
196 238
196 242
196 244
196 245
196 246
197 198
197 199
197 210
197 234
197 237
197 243
197 248
197 254
197 255
198 199
198 208
198 226
198 227
198 228
198 229
198 230
198 231
199 207
199 214
199 215
199 216
199 217
199 218
199 219
200 201
200 202
200 203
200 204
200 205
200 206
200 215
200 223
200 226
200 246
200 250
200 252
200 255
201 202
201 203
201 204
201 205
201 206
201 214
201 221
201 227
201 232
201 233
201 234
201 235
202 203
202 204
202 205
202 206
202 216
202 220
202 229
202 244
202 247
202 248
202 249
203 204
203 205
203 206
203 219
203 224
203 231
203 236
203 237
203 238
203 239
204 205
204 206
204 217
204 225
204 228
204 245
204 251
204 253
204 254
205 206
205 207
205 208
205 209
205 210
205 211
205 212
205 213
206 218
206 222
206 230
206 240
206 241
206 242
206 243
207 208
207 209
207 210
207 211
207 212
207 213
207 214
207 215
207 216
207 217
207 218
207 219
208 209
208 210
208 211
208 212
208 213
208 226
208 227
208 228
208 229
208 230
208 231
209 210
209 211
209 212
209 213
209 232
209 236
209 240
209 249
209 250
209 251
210 211
210 212
210 213
210 234
210 237
210 243
210 248
210 254
210 255
211 212
211 213
211 233
211 239
211 241
211 247
211 252
211 253
212 213
212 235
212 238
212 242
212 244
212 245
212 246
213 220
213 221
213 222
213 223
213 224
213 225
214 215
214 216
214 217
214 218
214 219
214 221
214 227
214 232
214 233
214 234
214 235
215 216
215 217
215 218
215 219
215 223
215 226
215 246
215 250
215 252
215 255
216 217
216 218
216 219
216 220
216 229
216 244
216 247
216 248
216 249
217 218
217 219
217 225
217 228
217 245
217 251
217 253
217 254
218 219
218 222
218 230
218 240
218 241
218 242
218 243
219 224
219 231
219 236
219 237
219 238
219 239
220 221
220 222
220 223
220 224
220 225
220 229
220 244
220 247
220 248
220 249
221 222
221 223
221 224
221 225
221 227
221 232
221 233
221 234
221 235
222 223
222 224
222 225
222 230
222 240
222 241
222 242
222 243
223 224
223 225
223 226
223 246
223 250
223 252
223 255
224 225
224 231
224 236
224 237
224 238
224 239
225 228
225 245
225 251
225 253
225 254
226 227
226 228
226 229
226 230
226 231
226 246
226 250
226 252
226 255
227 228
227 229
227 230
227 231
227 232
227 233
227 234
227 235
228 229
228 230
228 231
228 245
228 251
228 253
228 254
229 230
229 231
229 244
229 247
229 248
229 249
230 231
230 240
230 241
230 242
230 243
231 236
231 237
231 238
231 239
232 233
232 234
232 235
232 236
232 240
232 249
232 250
232 251
233 234
233 235
233 239
233 241
233 247
233 252
233 253
234 235
234 237
234 243
234 248
234 254
234 255
235 238
235 242
235 244
235 245
235 246
236 237
236 238
236 239
236 240
236 249
236 250
236 251
237 238
237 239
237 243
237 248
237 254
237 255
238 239
238 242
238 244
238 245
238 246
239 241
239 247
239 252
239 253
240 241
240 242
240 243
240 249
240 250
240 251
241 242
241 243
241 247
241 252
241 253
242 243
242 244
242 245
242 246
243 248
243 254
243 255
244 245
244 246
244 247
244 248
244 249
245 246
245 251
245 253
245 254
246 250
246 252
246 255
247 248
247 249
247 252
247 253
248 249
248 254
248 255
249 250
249 251
250 251
250 252
250 255
251 253
251 254
252 253
252 255
253 254
254 255
